>> Start of run:  30-MAY-2023  10:50:43

reinit: Reading from PdSe2.fdf

reinit: -----------------------------------------------------------------------
reinit: System Name:
reinit: -----------------------------------------------------------------------
reinit: System Label: siesta
reinit: -----------------------------------------------------------------------

initatom: Reading input for the pseudopotentials and atomic orbitals ----------
Species number:   1 Atomic number:   46 Label: Pd
Species number:   2 Atomic number:   34 Label: Se

Ground state valence configuration:   5s01  4d09
Reading pseudopotential information in formatted form from Pd.psf

Valence configuration for pseudopotential generation:
5s( 1.00) rc: 2.58
5p( 0.00) rc: 2.71
4d( 9.00) rc: 2.42
4f( 0.00) rc: 2.42
Ground state valence configuration:   4s02  4p04
Reading pseudopotential information in formatted form from Se.psf

Valence configuration for pseudopotential generation:
4s( 2.00) rc: 1.94
4p( 4.00) rc: 2.11
4d( 0.00) rc: 1.94
4f( 0.00) rc: 2.49
For Pd, standard SIESTA heuristics set lmxkb to 3
 (one more than the basis l, including polarization orbitals).
Use PS.lmax or PS.KBprojectors blocks to override.
Pd: nkbl increased for l=1 due to the presence of a polarization orbital
For Se, standard SIESTA heuristics set lmxkb to 3
 (one more than the basis l, including polarization orbitals).
Use PS.lmax or PS.KBprojectors blocks to override.

<basis_specs>
Pd                   Z=  46    Mass=  106.42        Charge= 0.17977+309
Lmxo=2 Lmxkb= 3    BasisType=split      Semic=F
L=0  Nsemic=0  Cnfigmx=5
          i=1  nzeta=2  polorb=1  (5s)
            splnorm:   0.15000
               vcte:    0.0000
               rinn:    0.0000
               qcoe:    0.0000
               qyuk:    0.0000
               qwid:   0.10000E-01
                rcs:    0.0000      0.0000
            lambdas:    1.0000      1.0000
L=1  Nsemic=0  Cnfigmx=5
L=2  Nsemic=0  Cnfigmx=4
          i=1  nzeta=2  polorb=0  (4d)
            splnorm:   0.15000
               vcte:    0.0000
               rinn:    0.0000
               qcoe:    0.0000
               qyuk:    0.0000
               qwid:   0.10000E-01
                rcs:    0.0000      0.0000
            lambdas:    1.0000      1.0000
L=0  Nkbl=1  erefs: 0.17977+309
L=1  Nkbl=2  erefs: 0.17977+309 0.17977+309
L=2  Nkbl=1  erefs: 0.17977+309
L=3  Nkbl=1  erefs: 0.17977+309
</basis_specs>

atom: Called for Pd                    (Z =  46)

read_vps: Pseudopotential generation method:
read_vps: ATM3      Troullier-Martins
Valence charge for ps generation:   10.00000

read_vps: Pseudopotential includes a core correction:

xc_check: Exchange-correlation functional:
xc_check: Ceperley-Alder
xc_check: WARNING: Pseudopotential generated with Unknown atomic XC code functional
V l=0 = -2*Zval/r beyond r=  2.6087
V l=1 = -2*Zval/r beyond r=  2.8830
V l=2 = -2*Zval/r beyond r=  2.5763
V l=3 = -2*Zval/r beyond r=  2.5443
All V_l potentials equal beyond r=  2.6747
This should be close to max(r_c) in ps generation
All pots = -2*Zval/r beyond r=  2.8830

VLOCAL1: 99.0% of the norm of Vloc inside      6.068 Ry
VLOCAL1: 99.9% of the norm of Vloc inside     13.828 Ry
atom: Maximum radius for 4*pi*r*r*local-pseudopot. charge    3.22632
atom: Maximum radius for r*vlocal+2*Zval:    2.84721
GHOST: No ghost state for L =  0
KBgen: More than one KB projector for l=  1
KBgen: ghost states analysis will be not performed
GHOST: No ghost state for L =  2
GHOST: No ghost state for L =  3

KBgen: Kleinman-Bylander projectors:
   l= 0   rc=  3.146660   el= -0.310910   Ekb=  3.310588   kbcos=  0.260099
   l= 1   rc=  3.266902   el= -0.070420   Ekb=  1.770254   kbcos=  0.225385
   l= 1   rc=  3.610491   el=  0.001442   Ekb=  1.788459   kbcos=  0.003727
   l= 2   rc=  2.847210   el= -0.506616   Ekb= -7.135623   kbcos= -0.692581
   l= 3   rc=  3.226319   el=  0.003502   Ekb= -2.843940   kbcos= -0.013727

KBgen: Total number of Kleinman-Bylander projectors:   19
atom: -------------------------------------------------------------------------

atom: SANKEY-TYPE ORBITALS:
atom: Selected multiple-zeta basis: split

SPLIT: Orbitals with angular momentum L= 0

SPLIT: Basis orbitals for state 5s

SPLIT: PAO cut-off radius determined from an
SPLIT: energy shift=  0.020000 Ry

   izeta = 1
                 lambda =    1.000000
                     rc =    6.830178
                 energy =   -0.290789
                kinetic =    0.302169
    potential(screened) =   -0.592958
       potential(ionic) =   -6.914402

   izeta = 2
                 rmatch =    6.578787
              splitnorm =    0.150000
                 energy =   -0.243246
                kinetic =    0.454593
    potential(screened) =   -0.697839
       potential(ionic) =   -7.375591

[...]

SPLIT: Basis orbitals for state 4d

[...]

POLgen: Perturbative polarization orbital with L=  1

POLgen: Polarization orbital for state 5s

   izeta = 1
                     rc =    6.830178
                 energy =   -0.020258
                kinetic =    0.548679
    potential(screened) =   -0.568936
       potential(ionic) =   -6.504680
atom: Total number of Sankey-type orbitals: 15

atm_pop: Valence configuration (for local Pseudopot. screening):
 5s( 1.00)
 5p( 0.00)
 4d( 9.00)
Vna: chval, zval:   10.00000  10.00000

Vna:  Cut-off radius for the neutral-atom potential:   6.830178
comcore: Pseudo-core radius Rcore=  4.091229

atom: _________________________________________________________________________

<basis_specs>
Se                   Z=  34    Mass=  78.960        Charge= 0.17977+309
Lmxo=1 Lmxkb= 3    BasisType=split      Semic=F
L=0  Nsemic=0  Cnfigmx=4
          i=1  nzeta=2  polorb=0  (4s)
            splnorm:   0.15000
               vcte:    0.0000
               rinn:    0.0000
               qcoe:    0.0000
               qyuk:    0.0000
               qwid:   0.10000E-01
                rcs:    0.0000      0.0000
            lambdas:    1.0000      1.0000
L=1  Nsemic=0  Cnfigmx=4
          i=1  nzeta=2  polorb=1  (4p)
            splnorm:   0.15000
               vcte:    0.0000
               rinn:    0.0000
               qcoe:    0.0000
               qyuk:    0.0000
               qwid:   0.10000E-01
                rcs:    0.0000      0.0000
            lambdas:    1.0000      1.0000
L=0  Nkbl=1  erefs: 0.17977+309
L=1  Nkbl=1  erefs: 0.17977+309
L=2  Nkbl=1  erefs: 0.17977+309
L=3  Nkbl=1  erefs: 0.17977+309
</basis_specs>

atom: Called for Se                    (Z =  34)

read_vps: Pseudopotential generation method:
read_vps: ATM3      Troullier-Martins
Valence charge for ps generation:    6.00000

read_vps: Pseudopotential includes a core correction:

xc_check: Exchange-correlation functional:
xc_check: Ceperley-Alder
xc_check: WARNING: Pseudopotential generated with Unknown atomic XC code functional
V l=0 = -2*Zval/r beyond r=  2.5821
V l=1 = -2*Zval/r beyond r=  2.5821
V l=2 = -2*Zval/r beyond r=  2.5821
V l=3 = -2*Zval/r beyond r=  2.6146
All V_l potentials equal beyond r=  2.4257
This should be close to max(r_c) in ps generation
All pots = -2*Zval/r beyond r=  2.6146

VLOCAL1: 99.0% of the norm of Vloc inside      7.377 Ry
VLOCAL1: 99.9% of the norm of Vloc inside     16.813 Ry
atom: Maximum radius for 4*pi*r*r*local-pseudopot. charge    2.92594
atom: Maximum radius for r*vlocal+2*Zval:    2.55004
GHOST: No ghost state for L =  0
GHOST: No ghost state for L =  1
GHOST: No ghost state for L =  2
GHOST: No ghost state for L =  3

KBgen: Kleinman-Bylander projectors:
   l= 0   rc=  2.748658   el= -1.217621   Ekb=  6.311136   kbcos=  0.274788
   l= 1   rc=  2.853693   el= -0.477026   Ekb=  2.746607   kbcos=  0.239605
   l= 2   rc=  2.962741   el=  0.002371   Ekb=  3.890608   kbcos=  0.028154
   l= 3   rc=  3.193497   el=  0.003486   Ekb= -0.844302   kbcos= -0.011371

KBgen: Total number of Kleinman-Bylander projectors:   16
atom: -------------------------------------------------------------------------

atom: SANKEY-TYPE ORBITALS:
atom: Selected multiple-zeta basis: split

[...]

SPLIT: Basis orbitals for state 4s

[...]

SPLIT: Orbitals with angular momentum L= 1

SPLIT: Basis orbitals for state 4p

SPLIT: PAO cut-off radius determined from an
SPLIT: energy shift=  0.020000 Ry

   izeta = 1
                 lambda =    1.000000
                     rc =    5.331464
                 energy =   -0.456532
                kinetic =    1.200073
    potential(screened) =   -1.656606
       potential(ionic) =   -5.816413

   izeta = 2
                 rmatch =    4.204360
              splitnorm =    0.150000
                 energy =   -0.320917
                kinetic =    1.725638
    potential(screened) =   -2.046555
       potential(ionic) =   -6.523659

POLgen: Perturbative polarization orbital with L=  2

POLgen: Polarization orbital for state 4p

   izeta = 1
                     rc =    5.331464
                 energy =    0.538234
                kinetic =    1.839758
    potential(screened) =   -1.301525
       potential(ionic) =   -5.167713
atom: Total number of Sankey-type orbitals: 13

atm_pop: Valence configuration (for local Pseudopot. screening):
 4s( 2.00)
 4p( 4.00)
Vna: chval, zval:    6.00000   6.00000

Vna:  Cut-off radius for the neutral-atom potential:   5.331464
comcore: Pseudo-core radius Rcore=  3.618716

atom: _________________________________________________________________________

prinput: Basis input ----------------------------------------------------------

PAO.BasisType split

%block ChemicalSpeciesLabel
    1   46 Pd                      # Species index, atomic number, species label
    2   34 Se                      # Species index, atomic number, species label
%endblock ChemicalSpeciesLabel

%block PAO.Basis                 # Define Basis set
Pd                    2                    # Species label, number of l-shells
 n=5   0   2 P   1                   # n, l, Nzeta, Polarization, NzetaPol
   6.830      6.579
   1.000      1.000
 n=4   2   2                         # n, l, Nzeta
   4.143      2.641
   1.000      1.000
Se                    2                    # Species label, number of l-shells
 n=4   0   2                         # n, l, Nzeta
   4.365      3.710
   1.000      1.000
 n=4   1   2 P   1                   # n, l, Nzeta, Polarization, NzetaPol
   5.331      4.204
   1.000      1.000
%endblock PAO.Basis

prinput: ----------------------------------------------------------------------

Dumping basis to NetCDF file Pd.ion.nc
Dumping basis to NetCDF file Se.ion.nc
coor:   Atomic-coordinates input format  =     Cartesian coordinates
coor:                                          (in Angstroms)

siesta: Atomic coordinates (Bohr) and species
siesta:      0.00000   0.00000   0.00000  1        1
siesta:      5.44241   5.57469   0.00000  1        2
siesta:      6.53090   1.25594   1.27525  2        3
siesta:      1.30580   4.18647  -1.27525  2        4
siesta:      9.79634   6.69835   1.27524  2        5
siesta:      4.13623   9.62889  -1.27525  2        6

siesta: System type = slab

initatomlists: Number of atoms, orbitals, and projectors:      6    82   102

[...]
ts: Save DM and EDM matrices                        =    F
ts: Only save the overlap matrix S                  =    F
ts: **************************************************************

************************ Begin: TS CHECKS AND WARNINGS ************************
************************ End: TS CHECKS AND WARNINGS **************************

                        Begin CG opt. move =      0

outcell: Unit cell vectors (Ang):
        5.760000    0.000000    0.000000
        0.000000    5.900000    0.000000
        0.000000    0.000000   20.000000

outcell: Cell vector modules (Ang)   :    5.760000    5.900000   20.000000
outcell: Cell angles (23,13,12) (deg):     90.0000     90.0000     90.0000
outcell: Cell volume (Ang**3)        :    679.6800
Gamma-point calculation with interaction between periodic images
Some features might not work optimally:
e.g. DM initialization from atomic data
<dSpData1D:S at geom step 0
  <sparsity:sparsity for geom step 0
    nrows_g=82 nrows=82 sparsity=1.0000 nnzs=6724, refcount: 7>
  <dData1D:(new from dSpData1D) n=6724, refcount: 1>
refcount: 1>
new_DM -- step:     1
Initializing Density Matrix...
DM filled with atomic data:
<dSpData2D:DM initialized from atoms
  <sparsity:sparsity for geom step 0
    nrows_g=82 nrows=82 sparsity=1.0000 nnzs=6724, refcount: 8>
  <dData2D:DM n=6724 m=1, refcount: 1>
refcount: 1>
No. of atoms with KB's overlaping orbs in proc 0. Max # of overlaps:       6     139
New grid distribution:   1
           1       1:   32    1:   32    1:  108

InitMesh: MESH =    64 x    64 x   216 =      884736
InitMesh: (bp) =    32 x    32 x   108 =      110592
InitMesh: Mesh cutoff (required, used) =   300.000   322.366 Ry
ExtMesh (bp) on 0 =   116 x   112 x   188 =     2442496
PhiOnMesh: Number of (b)points on node 0 =               110592
PhiOnMesh: nlist on node 0 =              1117749

stepf: Fermi-Dirac step function

siesta: Program's energy decomposition (eV):
siesta: Ebs     =      -490.015355
siesta: Eions   =      3262.878236
siesta: Ena     =       256.649316
siesta: Ekin    =      1568.562990
siesta: Enl     =      -658.155089
siesta: Eso     =         0.000000
siesta: Edftu   =         0.000000
siesta: DEna    =        33.386148
siesta: DUscf   =         9.166756
siesta: DUext   =         0.000000
siesta: Exc     =      -696.058679
siesta: eta*DQ  =         0.000000
siesta: Emadel  =         0.000000
siesta: Emeta   =         0.000000
siesta: Emolmec =         0.000000
siesta: Ekinion =         0.000000
siesta: Eharris =     -2750.755804
siesta: Etot    =     -2749.326794
siesta: FreeEng =     -2749.326794

SCF Convergence by DM+H criterion
max |DM_out - DM_in|         :     0.0000234685
max |H_out - H_in|      (eV) :     0.0008832946
SCF cycle converged after 15 iterations

Using DM_out to compute the final energy and forces
No. of atoms with KB's overlaping orbs in proc 0. Max # of overlaps:       6     139

siesta: E_KS(eV) =            -2753.7043

siesta: E_KS - E_eggbox =     -2753.7043

siesta: Atomic forces (eV/Ang):
   Tot    0.007218    0.025709   -0.001188
   Max    1.949928
   Res    0.891325    sqrt( Sum f_i^2 / 3N )
   Max    1.949928    constrained

Stress tensor Voigt[x,y,z,yz,xz,xy] (kbar):        1.81        7.09        7.48        4.72        0.10        2.47
(Free)E + p*V (eV/cell)    -2756.0215
Target enthalpy (eV/cell)    -2753.7043

[...]

outcell: Cell vector modules (Ang)   :    5.760000    5.900000   20.000000
outcell: Cell angles (23,13,12) (deg):     90.0000     90.0000     90.0000
outcell: Cell volume (Ang**3)        :    679.6800
Gamma-point calculation with interaction between periodic images
Some features might not work optimally:
e.g. DM initialization from atomic data
<dSpData1D:S at geom step 1
  <sparsity:sparsity for geom step 1
    nrows_g=82 nrows=82 sparsity=1.0000 nnzs=6724, refcount: 7>
  <dData1D:(new from dSpData1D) n=6724, refcount: 1>
refcount: 1>
new_DM -- step:     2
Re-using DM from previous geometries...
Number of DMs in history: 1
 DM extrapolation coefficients:
1   1.00000
New DM after history re-use:
<dSpData2D:SpM extrapolated using coords
  <sparsity:sparsity for geom step 1
    nrows_g=82 nrows=82 sparsity=1.0000 nnzs=6724, refcount: 9>
  <dData2D:(temp array for extrapolation) n=6724 m=1, refcount: 1>
refcount: 1>
Note: For starting DM, Qtot, Tr[D*S] =         44.00000000         44.11601487
No. of atoms with KB's overlaping orbs in proc 0. Max # of overlaps:       6     139
New grid distribution:   1
           1       1:   32    1:   32    1:  108

[...]

        iscf     Eharris(eV)        E_KS(eV)     FreeEng(eV)     dDmax    Ef(eV) dHmax(eV)
   scf:    1    -2752.437641    -2753.682390    -2753.682390  0.081409 -3.246802  2.093946
   scf:    2    -2742.670009    -2750.417261    -2750.417261  0.316525 -2.729434  8.425208
   scf:    3    -2754.546721    -2753.965764    -2753.965764  0.264852 -3.265147  0.278770
   scf:    4    -2753.972935    -2753.971184    -2753.971184  0.007063 -3.277986  0.040600
   scf:    5    -2753.971819    -2753.971583    -2753.971583  0.000871 -3.282119  0.018430
   scf:    6    -2753.971750    -2753.971681    -2753.971681  0.000515 -3.283740  0.009590
   scf:    7    -2753.971728    -2753.971708    -2753.971708  0.000319 -3.283977  0.006259
   scf:    8    -2753.971720    -2753.971715    -2753.971715  0.000187 -3.283718  0.004584
   scf:    9    -2753.971718    -2753.971716    -2753.971716  0.000142 -3.283320  0.002650
   scf:   10    -2753.971718    -2753.971717    -2753.971717  0.000092 -3.282935  0.001660
   scf:   11    -2753.971717    -2753.971717    -2753.971717  0.000056 -3.282696  0.000826

[...]

cgvc: Finished line minimization    1.  Mean atomic displacement =    0.1023

[...]

outcell: Cell vector modules (Ang)   :    5.760000    5.900000   20.000000
outcell: Cell angles (23,13,12) (deg):     90.0000     90.0000     90.0000
outcell: Cell volume (Ang**3)        :    679.6800
Gamma-point calculation with interaction between periodic images
Some features might not work optimally:
e.g. DM initialization from atomic data
<dSpData1D:S at geom step 5
  <sparsity:sparsity for geom step 5
    nrows_g=82 nrows=82 sparsity=1.0000 nnzs=6724, refcount: 7>
  <dData1D:(new from dSpData1D) n=6724, refcount: 1>
refcount: 1>
new_DM -- step:     6
Re-using DM from previous geometries...
Number of DMs in history: 1
 DM extrapolation coefficients:
1   1.00000
New DM after history re-use:
<dSpData2D:SpM extrapolated using coords
  <sparsity:sparsity for geom step 5
    nrows_g=82 nrows=82 sparsity=1.0000 nnzs=6724, refcount: 9>
  <dData2D:(temp array for extrapolation) n=6724 m=1, refcount: 1>
refcount: 1>
No. of atoms with KB's overlaping orbs in proc 0. Max # of overlaps:       6     144
New grid distribution:   1
           1       1:   32    1:   32    1:  108

[...]

outcell: Cell vector modules (Ang)   :    5.760000    5.900000   20.000000
outcell: Cell angles (23,13,12) (deg):     90.0000     90.0000     90.0000
outcell: Cell volume (Ang**3)        :    679.6800
Gamma-point calculation with interaction between periodic images
Some features might not work optimally:
e.g. DM initialization from atomic data
<dSpData1D:S at geom step 15
  <sparsity:sparsity for geom step 15
    nrows_g=82 nrows=82 sparsity=1.0000 nnzs=6724, refcount: 7>
  <dData1D:(new from dSpData1D) n=6724, refcount: 1>
refcount: 1>
new_DM -- step:    16
Re-using DM from previous geometries...
Number of DMs in history: 1
 DM extrapolation coefficients:
1   1.00000
New DM after history re-use:
<dSpData2D:SpM extrapolated using coords
  <sparsity:sparsity for geom step 15
    nrows_g=82 nrows=82 sparsity=1.0000 nnzs=6724, refcount: 9>
  <dData2D:(temp array for extrapolation) n=6724 m=1, refcount: 1>
refcount: 1>
Note: For starting DM, Qtot, Tr[D*S] =         44.00000000         43.92425704
No. of atoms with KB's overlaping orbs in proc 0. Max # of overlaps:       6     147
New grid distribution:   1
           1       1:   32    1:   32    1:  108

[...]

cgvc: Finished line minimization   14.  Mean atomic displacement =    0.0014

                        Begin CG opt. move =     34

outcell: Unit cell vectors (Ang):
        5.760000    0.000000    0.000000
        0.000000    5.900000    0.000000
        0.000000    0.000000   20.000000

outcell: Cell vector modules (Ang)   :    5.760000    5.900000   20.000000
outcell: Cell angles (23,13,12) (deg):     90.0000     90.0000     90.0000
outcell: Cell volume (Ang**3)        :    679.6800
Gamma-point calculation with interaction between periodic images
Some features might not work optimally:
e.g. DM initialization from atomic data
<dSpData1D:S at geom step 34
  <sparsity:sparsity for geom step 34
    nrows_g=82 nrows=82 sparsity=1.0000 nnzs=6724, refcount: 7>
  <dData1D:(new from dSpData1D) n=6724, refcount: 1>
refcount: 1>
new_DM -- step:    35
Re-using DM from previous geometries...
Number of DMs in history: 1
 DM extrapolation coefficients:
1   1.00000
New DM after history re-use:
<dSpData2D:SpM extrapolated using coords
  <sparsity:sparsity for geom step 34
    nrows_g=82 nrows=82 sparsity=1.0000 nnzs=6724, refcount: 9>
  <dData2D:(temp array for extrapolation) n=6724 m=1, refcount: 1>
refcount: 1>
No. of atoms with KB's overlaping orbs in proc 0. Max # of overlaps:       6     137
New grid distribution:   1
           1       1:   32    1:   32    1:  108

InitMesh: MESH =    64 x    64 x   216 =      884736
InitMesh: (bp) =    32 x    32 x   108 =      110592
InitMesh: Mesh cutoff (required, used) =   300.000   322.366 Ry
ExtMesh (bp) on 0 =   116 x   112 x   188 =     2442496
PhiOnMesh: Number of (b)points on node 0 =               110592
PhiOnMesh: nlist on node 0 =              1118149

        iscf     Eharris(eV)        E_KS(eV)     FreeEng(eV)     dDmax    Ef(eV) dHmax(eV)
   scf:    1    -2754.175906    -2754.176088    -2754.176088  0.000757 -3.519888  0.015525
   scf:    2    -2754.175539    -2754.175929    -2754.175929  0.001014 -3.520450  0.048264
   scf:    3    -2754.176143    -2754.176106    -2754.176106  0.000774 -3.519986  0.000728
   scf:    4    -2754.176106    -2754.176106    -2754.176106  0.000018 -3.519979  0.000184

SCF Convergence by DM+H criterion
max |DM_out - DM_in|         :     0.0000180558
max |H_out - H_in|      (eV) :     0.0001843108
SCF cycle converged after 4 iterations

Using DM_out to compute the final energy and forces
No. of atoms with KB's overlaping orbs in proc 0. Max # of overlaps:       6     137

siesta: E_KS(eV) =            -2754.1761

siesta: Atomic forces (eV/Ang):
   Tot    0.000379    0.016147    0.001353
   Max    0.008023
   Res    0.003816    sqrt( Sum f_i^2 / 3N )
   Max    0.008023    constrained

Stress tensor Voigt[x,y,z,yz,xz,xy] (kbar):       -0.22        7.28       -0.00       -0.01       -0.01        0.01
(Free)E + p*V (eV/cell)    -2755.1740
Target enthalpy (eV/cell)    -2754.1761

outcoor: Relaxed atomic coordinates (Ang):
   -0.00510584    0.08191834    0.23040841   1       1  Pd
    2.88394332    3.03137896    0.23084649   1       2  Pd
    3.43066566    0.62950987    0.45265457   2       3  Se
    0.78510107    2.14300857   -0.67755403   2       4  Se
    5.20811148    3.57927892    0.45278566   2       5  Se
    2.09391087    5.09242627   -0.67712548   2       6  Se

coxmol: Writing XMOL coordinates into file siesta.xyz

siesta: Program's energy decomposition (eV):
siesta: Ebs     =      -395.995624
siesta: Eions   =      3262.878236
siesta: Ena     =       255.676043
siesta: Ekin    =      1678.318549
siesta: Enl     =      -736.407605
siesta: Eso     =         0.000000
siesta: Edftu   =         0.000000
siesta: DEna    =        20.297668
siesta: DUscf   =         2.033198
siesta: DUext   =         0.000000
siesta: Exc     =      -711.215723
siesta: eta*DQ  =         0.000000
siesta: Emadel  =         0.000000
siesta: Emeta   =         0.000000
siesta: Emolmec =         0.000000
siesta: Ekinion =         0.000000
siesta: Eharris =     -2754.176106
siesta: Etot    =     -2754.176106
siesta: FreeEng =     -2754.176106

siesta: Final energy (eV):
siesta:  Band Struct. =    -395.995624
siesta:       Kinetic =    1678.318549
siesta:       Hartree =    6845.180987
siesta:       Edftu   =       0.000000
siesta:       Eso     =       0.000000
siesta:    Ext. field =       0.000000
siesta:   Exch.-corr. =    -711.215723
siesta:  Ion-electron =  -15079.607105
siesta:       Ion-ion =    4513.147187
siesta:       Ekinion =       0.000000
siesta:         Total =   -2754.176106
siesta:         Fermi =      -3.519979

siesta: Stress tensor (static) (eV/Ang**3):
siesta:    -0.000138    0.000008   -0.000008
siesta:     0.000008    0.004543   -0.000004
siesta:    -0.000008   -0.000004   -0.000000

siesta: Cell volume =        679.680000 Ang**3

siesta: Pressure (static):
siesta:                Solid            Molecule  Units
siesta:          -0.00001599         -0.00001620  Ry/Bohr**3
siesta:          -0.00146823         -0.00148763  eV/Ang**3
siesta:          -2.35239061         -2.38347442  kBar
(Free)E+ p_basis*V_orbitals  =       -2751.022793
(Free)Eharris+ p_basis*V_orbitals  =       -2751.022793

siesta: Electric dipole (a.u.)  =   -0.000000   -0.000000   -0.013191
siesta: Electric dipole (Debye) =   -0.000000   -0.000000   -0.033528

cite: Please see "siesta.bib" for an exhaustive BiBTeX file.
cite: Please clearly indicate Siesta version in published work: 4.1.5
cite: This calculation has made use of the following articles
cite: which are encouraged to be cited in a published work.
        Primary SIESTA paper
          DOI: www.doi.org/10.1088/0953-8984/14/11/302

Routine            Calls   Time/call    Tot.time        %
siesta                 1     437.172     437.172   100.00
Setup                  1       0.172       0.172     0.04
bands                  1       0.000       0.000     0.00
KSV_init               1       0.000       0.000     0.00
IterGeom              35      12.486     437.000    99.96
state_init            35       0.040       1.406     0.32
hsparse               35       0.002       0.078     0.02
overlap               35       0.035       1.234     0.28
Setup_H0              35       1.534      53.688    12.28
naefs                 70       0.000       0.000     0.00
MolMec                70       0.000       0.000     0.00
kinefsm               70       0.020       1.406     0.32
nlefsm                70       0.109       7.641     1.75
DHSCF_Init            35       1.315      46.016    10.53
DHSCF1                35       0.047       1.641     0.38
INITMESH              35       0.000       0.000     0.00
DHSCF2                35       1.268      44.375    10.15
REMESH                35       0.249       8.703     1.99
REORD               1211       0.001       1.609     0.37
PHION                 35       0.811      28.391     6.49
COMM_BSC            1477       0.001       1.609     0.37
POISON               378       0.101      38.328     8.77
fft                  756       0.046      34.688     7.93
IterSCF              273       1.201     327.797    74.98
setup_H              308       1.048     322.844    73.85
DHSCF                343       1.093     375.047    85.79
DHSCF3               343       0.982     336.875    77.06
rhoofd               343       0.712     244.375    55.90
XC                   343       0.039      13.344     3.05
GXC-CellXC           343       0.037      12.594     2.88
cellXC               343       0.037      12.578     2.88
vmat                 343       0.104      35.531     8.13
compute_dm           273       0.018       4.859     1.11
diagon               273       0.017       4.703     1.08
r-eigvec             273       0.009       2.516     0.58
r-buildHS            273       0.000       0.016     0.00
rdiag                273       0.009       2.500     0.57
rdiag1               273       0.000       0.125     0.03
rdiag2               273       0.000       0.125     0.03
rdiag3               273       0.007       2.016     0.46
rdiag4               273       0.001       0.234     0.05
r-buildD             273       0.008       2.188     0.50
MIXER                238       0.000       0.000     0.00
PostSCF               35       1.544      54.031    12.36
DHSCF4                35       1.091      38.172     8.73
dfscf                 35       0.973      34.062     7.79
overfsm               35       0.006       0.203     0.05
state_analysis        35       0.000       0.016     0.00
siesta_move           35       0.002       0.062     0.01
Analysis               1       0.000       0.000     0.00
siesta_analysis        1       0.000       0.000     0.00
optical                1       0.000       0.000     0.00

>> End of run:  30-MAY-2023  10:54:54
Job completed