>> Start of run:  29-MAY-2023  18:16:14

reinit: Reading from PdSe2.fdf

reinit: -----------------------------------------------------------------------
reinit: System Name:
reinit: -----------------------------------------------------------------------
reinit: System Label: siesta
reinit: -----------------------------------------------------------------------

initatom: Reading input for the pseudopotentials and atomic orbitals ----------
Species number:   1 Atomic number:   46 Label: Pd
Species number:   2 Atomic number:   34 Label: Se

Ground state valence configuration:   5s01  4d09
Reading pseudopotential information in formatted form from Pd.psf

Valence configuration for pseudopotential generation:
5s( 1.00) rc: 2.58
5p( 0.00) rc: 2.71
4d( 9.00) rc: 2.42
4f( 0.00) rc: 2.42
Ground state valence configuration:   4s02  4p04
Reading pseudopotential information in formatted form from Se.psf

Valence configuration for pseudopotential generation:
4s( 2.00) rc: 1.94
4p( 4.00) rc: 2.11
4d( 0.00) rc: 1.94
4f( 0.00) rc: 2.49
For Pd, standard SIESTA heuristics set lmxkb to 3
 (one more than the basis l, including polarization orbitals).
Use PS.lmax or PS.KBprojectors blocks to override.
Pd: nkbl increased for l=1 due to the presence of a polarization orbital
For Se, standard SIESTA heuristics set lmxkb to 3
 (one more than the basis l, including polarization orbitals).
Use PS.lmax or PS.KBprojectors blocks to override.

<basis_specs>
Pd                   Z=  46    Mass=  106.42        Charge= 0.17977+309
Lmxo=2 Lmxkb= 3    BasisType=split      Semic=F
L=0  Nsemic=0  Cnfigmx=5
          i=1  nzeta=2  polorb=1  (5s)
            splnorm:   0.15000
               vcte:    0.0000
               rinn:    0.0000
               qcoe:    0.0000
               qyuk:    0.0000
               qwid:   0.10000E-01
                rcs:    0.0000      0.0000
            lambdas:    1.0000      1.0000
L=1  Nsemic=0  Cnfigmx=5
L=2  Nsemic=0  Cnfigmx=4
          i=1  nzeta=2  polorb=0  (4d)
            splnorm:   0.15000
               vcte:    0.0000
               rinn:    0.0000
               qcoe:    0.0000
               qyuk:    0.0000
               qwid:   0.10000E-01
                rcs:    0.0000      0.0000
            lambdas:    1.0000      1.0000
L=0  Nkbl=1  erefs: 0.17977+309
L=1  Nkbl=2  erefs: 0.17977+309 0.17977+309
L=2  Nkbl=1  erefs: 0.17977+309
L=3  Nkbl=1  erefs: 0.17977+309
</basis_specs>

atom: Called for Pd                    (Z =  46)

read_vps: Pseudopotential generation method:
read_vps: ATM3      Troullier-Martins
Valence charge for ps generation:   10.00000

read_vps: Pseudopotential includes a core correction:

xc_check: Exchange-correlation functional:
xc_check: Ceperley-Alder
xc_check: WARNING: Pseudopotential generated with Unknown atomic XC code functional
V l=0 = -2*Zval/r beyond r=  2.6087
V l=1 = -2*Zval/r beyond r=  2.8830
V l=2 = -2*Zval/r beyond r=  2.5763
V l=3 = -2*Zval/r beyond r=  2.5443
All V_l potentials equal beyond r=  2.6747
This should be close to max(r_c) in ps generation
All pots = -2*Zval/r beyond r=  2.8830

VLOCAL1: 99.0% of the norm of Vloc inside      6.068 Ry
VLOCAL1: 99.9% of the norm of Vloc inside     13.828 Ry
atom: Maximum radius for 4*pi*r*r*local-pseudopot. charge    3.22632
atom: Maximum radius for r*vlocal+2*Zval:    2.84721
GHOST: No ghost state for L =  0
KBgen: More than one KB projector for l=  1
KBgen: ghost states analysis will be not performed
GHOST: No ghost state for L =  2
GHOST: No ghost state for L =  3

KBgen: Kleinman-Bylander projectors:
   l= 0   rc=  3.146660   el= -0.310910   Ekb=  3.310588   kbcos=  0.260099
   l= 1   rc=  3.266902   el= -0.070420   Ekb=  1.770254   kbcos=  0.225385
   l= 1   rc=  3.610491   el=  0.001442   Ekb=  1.788459   kbcos=  0.003727
   l= 2   rc=  2.847210   el= -0.506616   Ekb= -7.135623   kbcos= -0.692581
   l= 3   rc=  3.226319   el=  0.003502   Ekb= -2.843940   kbcos= -0.013727

KBgen: Total number of Kleinman-Bylander projectors:   19
atom: -------------------------------------------------------------------------

atom: SANKEY-TYPE ORBITALS:
atom: Selected multiple-zeta basis: split

SPLIT: Orbitals with angular momentum L= 0

SPLIT: Basis orbitals for state 5s

SPLIT: PAO cut-off radius determined from an
SPLIT: energy shift=  0.020000 Ry

   izeta = 1
                 lambda =    1.000000
                     rc =    6.830178
                 energy =   -0.290789
                kinetic =    0.302169
    potential(screened) =   -0.592958
       potential(ionic) =   -6.914402

   izeta = 2
                 rmatch =    6.578787
              splitnorm =    0.150000
                 energy =   -0.243246
                kinetic =    0.454593
    potential(screened) =   -0.697839
       potential(ionic) =   -7.375591

[...]

SPLIT: Basis orbitals for state 4d

[...]

POLgen: Perturbative polarization orbital with L=  1

POLgen: Polarization orbital for state 5s

   izeta = 1
                     rc =    6.830178
                 energy =   -0.020258
                kinetic =    0.548679
    potential(screened) =   -0.568936
       potential(ionic) =   -6.504680
atom: Total number of Sankey-type orbitals: 15

atm_pop: Valence configuration (for local Pseudopot. screening):
 5s( 1.00)
 5p( 0.00)
 4d( 9.00)
Vna: chval, zval:   10.00000  10.00000

Vna:  Cut-off radius for the neutral-atom potential:   6.830178
comcore: Pseudo-core radius Rcore=  4.091229

atom: _________________________________________________________________________

<basis_specs>
Se                   Z=  34    Mass=  78.960        Charge= 0.17977+309
Lmxo=1 Lmxkb= 3    BasisType=split      Semic=F
L=0  Nsemic=0  Cnfigmx=4
          i=1  nzeta=2  polorb=0  (4s)
            splnorm:   0.15000
               vcte:    0.0000
               rinn:    0.0000
               qcoe:    0.0000
               qyuk:    0.0000
               qwid:   0.10000E-01
                rcs:    0.0000      0.0000
            lambdas:    1.0000      1.0000
L=1  Nsemic=0  Cnfigmx=4
          i=1  nzeta=2  polorb=1  (4p)
            splnorm:   0.15000
               vcte:    0.0000
               rinn:    0.0000
               qcoe:    0.0000
               qyuk:    0.0000
               qwid:   0.10000E-01
                rcs:    0.0000      0.0000
            lambdas:    1.0000      1.0000
L=0  Nkbl=1  erefs: 0.17977+309
L=1  Nkbl=1  erefs: 0.17977+309
L=2  Nkbl=1  erefs: 0.17977+309
L=3  Nkbl=1  erefs: 0.17977+309
</basis_specs>

atom: Called for Se                    (Z =  34)

read_vps: Pseudopotential generation method:
read_vps: ATM3      Troullier-Martins
Valence charge for ps generation:    6.00000

read_vps: Pseudopotential includes a core correction:

xc_check: Exchange-correlation functional:
xc_check: Ceperley-Alder
xc_check: WARNING: Pseudopotential generated with Unknown atomic XC code functional
V l=0 = -2*Zval/r beyond r=  2.5821
V l=1 = -2*Zval/r beyond r=  2.5821
V l=2 = -2*Zval/r beyond r=  2.5821
V l=3 = -2*Zval/r beyond r=  2.6146
All V_l potentials equal beyond r=  2.4257
This should be close to max(r_c) in ps generation
All pots = -2*Zval/r beyond r=  2.6146

VLOCAL1: 99.0% of the norm of Vloc inside      7.377 Ry
VLOCAL1: 99.9% of the norm of Vloc inside     16.813 Ry
atom: Maximum radius for 4*pi*r*r*local-pseudopot. charge    2.92594
atom: Maximum radius for r*vlocal+2*Zval:    2.55004
GHOST: No ghost state for L =  0
GHOST: No ghost state for L =  1
GHOST: No ghost state for L =  2
GHOST: No ghost state for L =  3

KBgen: Kleinman-Bylander projectors:
   l= 0   rc=  2.748658   el= -1.217621   Ekb=  6.311136   kbcos=  0.274788
   l= 1   rc=  2.853693   el= -0.477026   Ekb=  2.746607   kbcos=  0.239605
   l= 2   rc=  2.962741   el=  0.002371   Ekb=  3.890608   kbcos=  0.028154
   l= 3   rc=  3.193497   el=  0.003486   Ekb= -0.844302   kbcos= -0.011371

KBgen: Total number of Kleinman-Bylander projectors:   16
atom: -------------------------------------------------------------------------

atom: SANKEY-TYPE ORBITALS:
atom: Selected multiple-zeta basis: split

[...]

SPLIT: Basis orbitals for state 4s

[...]

SPLIT: Orbitals with angular momentum L= 1

SPLIT: Basis orbitals for state 4p

SPLIT: PAO cut-off radius determined from an
SPLIT: energy shift=  0.020000 Ry

   izeta = 1
                 lambda =    1.000000
                     rc =    5.331464
                 energy =   -0.456532
                kinetic =    1.200073
    potential(screened) =   -1.656606
       potential(ionic) =   -5.816413

   izeta = 2
                 rmatch =    4.204360
              splitnorm =    0.150000
                 energy =   -0.320917
                kinetic =    1.725638
    potential(screened) =   -2.046555
       potential(ionic) =   -6.523659

POLgen: Perturbative polarization orbital with L=  2

POLgen: Polarization orbital for state 4p

   izeta = 1
                     rc =    5.331464
                 energy =    0.538234
                kinetic =    1.839758
    potential(screened) =   -1.301525
       potential(ionic) =   -5.167713
atom: Total number of Sankey-type orbitals: 13

atm_pop: Valence configuration (for local Pseudopot. screening):
 4s( 2.00)
 4p( 4.00)
Vna: chval, zval:    6.00000   6.00000

Vna:  Cut-off radius for the neutral-atom potential:   5.331464
comcore: Pseudo-core radius Rcore=  3.618716

atom: _________________________________________________________________________

prinput: Basis input ----------------------------------------------------------

PAO.BasisType split

%block ChemicalSpeciesLabel
    1   46 Pd                      # Species index, atomic number, species label
    2   34 Se                      # Species index, atomic number, species label
%endblock ChemicalSpeciesLabel

%block PAO.Basis                 # Define Basis set
Pd                    2                    # Species label, number of l-shells
 n=5   0   2 P   1                   # n, l, Nzeta, Polarization, NzetaPol
   6.830      6.579
   1.000      1.000
 n=4   2   2                         # n, l, Nzeta
   4.143      2.641
   1.000      1.000
Se                    2                    # Species label, number of l-shells
 n=4   0   2                         # n, l, Nzeta
   4.365      3.710
   1.000      1.000
 n=4   1   2 P   1                   # n, l, Nzeta, Polarization, NzetaPol
   5.331      4.204
   1.000      1.000
%endblock PAO.Basis

prinput: ----------------------------------------------------------------------

Dumping basis to NetCDF file Pd.ion.nc
Dumping basis to NetCDF file Se.ion.nc
coor:   Atomic-coordinates input format  =     Cartesian coordinates
coor:                                          (in Angstroms)

siesta: Atomic coordinates (Bohr) and species
siesta:      0.00000   0.00000   0.00000  1        1
siesta:      5.44241   5.57469   0.00000  1        2
siesta:      0.00000   5.57469   7.26694  1        3
siesta:      5.44241  11.14939   7.26694  1        4
siesta:      6.53090   1.25594   1.27525  2        5
siesta:      1.30580   4.18647  -1.27525  2        6
siesta:      9.79634   6.69835   1.27524  2        7
siesta:      4.13623   9.62889  -1.27525  2        8
[...]
************************ End: TS CHECKS AND WARNINGS **************************

                        Begin CG opt. move =      0

outcell: Unit cell vectors (Ang):
        5.760000    0.000000    0.000000
        0.000000    5.900000    0.000000
        0.000000    0.000000    7.691000

outcell: Cell vector modules (Ang)   :    5.760000    5.900000    7.691000
outcell: Cell angles (23,13,12) (deg):     90.0000     90.0000     90.0000
outcell: Cell volume (Ang**3)        :    261.3709
Gamma-point calculation with interaction between periodic images
Some features might not work optimally:
e.g. DM initialization from atomic data
<dSpData1D:S at geom step 0
  <sparsity:sparsity for geom step 0
    nrows_g=164 nrows=164 sparsity=.9926 nnzs=26696, refcount: 7>
  <dData1D:(new from dSpData1D) n=26696, refcount: 1>
refcount: 1>
new_DM -- step:     1
Initializing Density Matrix...
DM filled with atomic data:
<dSpData2D:DM initialized from atoms
  <sparsity:sparsity for geom step 0
    nrows_g=164 nrows=164 sparsity=.9926 nnzs=26696, refcount: 8>
  <dData2D:DM n=26696 m=1, refcount: 1>
refcount: 1>
No. of atoms with KB's overlaping orbs in proc 0. Max # of overlaps:      12     237
New grid distribution:   1
           1       1:   32    1:   32    1:   45

InitMesh: MESH =    64 x    64 x    90 =      368640
InitMesh: (bp) =    32 x    32 x    45 =       46080
InitMesh: Mesh cutoff (required, used) =   300.000   325.205 Ry
ExtMesh (bp) on 0 =   116 x   112 x   133 =     1727936
PhiOnMesh: Number of (b)points on node 0 =                46080
PhiOnMesh: nlist on node 0 =              2417760

stepf: Fermi-Dirac step function

siesta: Program's energy decomposition (eV):
siesta: Ebs     =      -879.169494
siesta: Eions   =      6525.756472
siesta: Ena     =       512.218255
siesta: Ekin    =      3149.396425
siesta: Enl     =     -1326.950346
siesta: Eso     =         0.000000
siesta: Edftu   =         0.000000
siesta: DEna    =        67.623521
siesta: DUscf   =        16.320644
siesta: DUext   =         0.000000
siesta: Exc     =     -1396.087344
siesta: eta*DQ  =         0.000000
siesta: Emadel  =         0.000000
siesta: Emeta   =         0.000000
siesta: Emolmec =         0.000000
siesta: Ekinion =         0.000000
siesta: Eharris =     -5507.651921
siesta: Etot    =     -5503.235318
siesta: FreeEng =     -5503.235633

SCF Convergence by DM+H criterion
max |DM_out - DM_in|         :     0.0000267581
max |H_out - H_in|      (eV) :     0.0006135813
SCF cycle converged after 14 iterations

Using DM_out to compute the final energy and forces
No. of atoms with KB's overlaping orbs in proc 0. Max # of overlaps:      12     237

siesta: E_KS(eV) =            -5511.0800

siesta: E_KS - E_eggbox =     -5511.0800

siesta: Atomic forces (eV/Ang):
   Tot    0.019598    0.034103   -0.009852
   Max    2.005787
   Res    0.800635    sqrt( Sum f_i^2 / 3N )
   Max    2.005787    constrained

Stress tensor Voigt[x,y,z,yz,xz,xy] (kbar):      -48.88      -21.78       86.25       36.63        0.46       14.59
(Free)E + p*V (eV/cell)    -5511.9278
Target enthalpy (eV/cell)    -5511.0800

[...]

outcell: Cell vector modules (Ang)   :    5.760000    5.900000    7.691000
outcell: Cell angles (23,13,12) (deg):     90.0000     90.0000     90.0000
outcell: Cell volume (Ang**3)        :    261.3709
Gamma-point calculation with interaction between periodic images
Some features might not work optimally:
e.g. DM initialization from atomic data
<dSpData1D:S at geom step 1
  <sparsity:sparsity for geom step 1
    nrows_g=164 nrows=164 sparsity=.9926 nnzs=26696, refcount: 7>
  <dData1D:(new from dSpData1D) n=26696, refcount: 1>
refcount: 1>
new_DM -- step:     2
Re-using DM from previous geometries...
Number of DMs in history: 1
 DM extrapolation coefficients:
1   1.00000
New DM after history re-use:
<dSpData2D:SpM extrapolated using coords
  <sparsity:sparsity for geom step 1
    nrows_g=164 nrows=164 sparsity=.9926 nnzs=26696, refcount: 9>
  <dData2D:(temp array for extrapolation) n=26696 m=1, refcount: 1>
refcount: 1>
Note: For starting DM, Qtot, Tr[D*S] =         88.00000000         88.08829141
No. of atoms with KB's overlaping orbs in proc 0. Max # of overlaps:      12     237
New grid distribution:   1
           1       1:   32    1:   32    1:   45

[...]

        iscf     Eharris(eV)        E_KS(eV)     FreeEng(eV)     dDmax    Ef(eV) dHmax(eV)
   scf:    1    -5510.341156    -5511.278431    -5511.278431  0.049508 -2.489023  1.081204
   scf:    2    -5506.459803    -5509.888368    -5509.888369  0.116397 -2.337232  4.163232
   scf:    3    -5511.705007    -5511.451325    -5511.451326  0.092668 -2.446639  0.170003
   scf:    4    -5511.457881    -5511.456028    -5511.456028  0.003236 -2.443985  0.025890
   scf:    5    -5511.456624    -5511.456360    -5511.456360  0.000527 -2.443182  0.013334
   scf:    6    -5511.456537    -5511.456467    -5511.456467  0.000493 -2.442405  0.009413
   scf:    7    -5511.456486    -5511.456480    -5511.456480  0.000166 -2.442012  0.004087
   scf:    8    -5511.456487    -5511.456484    -5511.456484  0.000093 -2.441865  0.002536
   scf:    9    -5511.456488    -5511.456486    -5511.456486  0.000078 -2.441658  0.001329
   scf:   10    -5511.456488    -5511.456487    -5511.456487  0.000085 -2.441432  0.001113
   scf:   11    -5511.456488    -5511.456487    -5511.456487  0.000025 -2.441369  0.000506

[...]

cgvc: Finished line minimization    1.  Mean atomic displacement =    0.0934

[...]

outcell: Cell vector modules (Ang)   :    5.760000    5.900000    7.691000
outcell: Cell angles (23,13,12) (deg):     90.0000     90.0000     90.0000
outcell: Cell volume (Ang**3)        :    261.3709
Gamma-point calculation with interaction between periodic images
Some features might not work optimally:
e.g. DM initialization from atomic data
<dSpData1D:S at geom step 4
  <sparsity:sparsity for geom step 4
    nrows_g=164 nrows=164 sparsity=.9926 nnzs=26696, refcount: 7>
  <dData1D:(new from dSpData1D) n=26696, refcount: 1>
refcount: 1>
new_DM -- step:     5
Re-using DM from previous geometries...
Number of DMs in history: 1
 DM extrapolation coefficients:
1   1.00000
New DM after history re-use:
<dSpData2D:SpM extrapolated using coords
  <sparsity:sparsity for geom step 4
    nrows_g=164 nrows=164 sparsity=.9926 nnzs=26696, refcount: 9>
  <dData2D:(temp array for extrapolation) n=26696 m=1, refcount: 1>
refcount: 1>
No. of atoms with KB's overlaping orbs in proc 0. Max # of overlaps:      12     247
New grid distribution:   1
           1       1:   32    1:   32    1:   45

[...]

outcell: Cell vector modules (Ang)   :    5.760000    5.900000    7.691000
outcell: Cell angles (23,13,12) (deg):     90.0000     90.0000     90.0000
outcell: Cell volume (Ang**3)        :    261.3709
Gamma-point calculation with interaction between periodic images
Some features might not work optimally:
e.g. DM initialization from atomic data
<dSpData1D:S at geom step 14
  <sparsity:sparsity for geom step 14
    nrows_g=164 nrows=164 sparsity=1.0000 nnzs=26896, refcount: 7>
  <dData1D:(new from dSpData1D) n=26896, refcount: 1>
refcount: 1>
new_DM -- step:    15
Re-using DM from previous geometries...
Number of DMs in history: 1
 DM extrapolation coefficients:
1   1.00000
New DM after history re-use:
<dSpData2D:SpM extrapolated using coords
  <sparsity:sparsity for geom step 14
    nrows_g=164 nrows=164 sparsity=1.0000 nnzs=26896, refcount: 9>
  <dData2D:(temp array for extrapolation) n=26896 m=1, refcount: 1>
refcount: 1>
Note: For starting DM, Qtot, Tr[D*S] =         88.00000000         87.85108343
No. of atoms with KB's overlaping orbs in proc 0. Max # of overlaps:      12     237
New grid distribution:   1
           1       1:   32    1:   32    1:   45

[...]

cgvc: Finished line minimization   11.  Mean atomic displacement =    0.0024

[...]

                        Begin CG opt. move =     27

outcell: Unit cell vectors (Ang):
        5.760000    0.000000    0.000000
        0.000000    5.900000    0.000000
        0.000000    0.000000    7.691000

outcell: Cell vector modules (Ang)   :    5.760000    5.900000    7.691000
outcell: Cell angles (23,13,12) (deg):     90.0000     90.0000     90.0000
outcell: Cell volume (Ang**3)        :    261.3709
Gamma-point calculation with interaction between periodic images
Some features might not work optimally:
e.g. DM initialization from atomic data
<dSpData1D:S at geom step 27
  <sparsity:sparsity for geom step 27
    nrows_g=164 nrows=164 sparsity=1.0000 nnzs=26896, refcount: 7>
  <dData1D:(new from dSpData1D) n=26896, refcount: 1>
refcount: 1>
new_DM -- step:    28
Re-using DM from previous geometries...
Number of DMs in history: 1
 DM extrapolation coefficients:
1   1.00000
New DM after history re-use:
<dSpData2D:SpM extrapolated using coords
  <sparsity:sparsity for geom step 27
    nrows_g=164 nrows=164 sparsity=1.0000 nnzs=26896, refcount: 9>
  <dData2D:(temp array for extrapolation) n=26896 m=1, refcount: 1>
refcount: 1>
No. of atoms with KB's overlaping orbs in proc 0. Max # of overlaps:      12     232
New grid distribution:   1
           1       1:   32    1:   32    1:   45

InitMesh: MESH =    64 x    64 x    90 =      368640
InitMesh: (bp) =    32 x    32 x    45 =       46080
InitMesh: Mesh cutoff (required, used) =   300.000   325.205 Ry
ExtMesh (bp) on 0 =   116 x   112 x   133 =     1727936
PhiOnMesh: Number of (b)points on node 0 =                46080
PhiOnMesh: nlist on node 0 =              2418108

        iscf     Eharris(eV)        E_KS(eV)     FreeEng(eV)     dDmax    Ef(eV) dHmax(eV)
   scf:    1    -5512.279753    -5512.274910    -5512.274910  0.000388 -3.039179  0.002882
   scf:    2    -5512.274838    -5512.274890    -5512.274890  0.000232 -3.039462  0.013332
   scf:    3    -5512.274917    -5512.274915    -5512.274915  0.000195 -3.039263  0.000910
   scf:    4    -5512.274915    -5512.274915    -5512.274915  0.000017 -3.039302  0.000182

SCF Convergence by DM+H criterion
max |DM_out - DM_in|         :     0.0000168954
max |H_out - H_in|      (eV) :     0.0001824867
SCF cycle converged after 4 iterations

Using DM_out to compute the final energy and forces
No. of atoms with KB's overlaping orbs in proc 0. Max # of overlaps:      12     232

siesta: E_KS(eV) =            -5512.2749

siesta: Atomic forces (eV/Ang):
   Tot   -0.014329    0.033492    0.027252
   Max    0.008372
   Res    0.004050    sqrt( Sum f_i^2 / 3N )
   Max    0.008372    constrained

Stress tensor Voigt[x,y,z,yz,xz,xy] (kbar):       -4.50       32.92       85.08       -9.23        0.07        0.10
(Free)E + p*V (eV/cell)    -5518.4473
Target enthalpy (eV/cell)    -5512.2749

outcoor: Relaxed atomic coordinates (Ang):
    0.01337413    0.08824469    0.28367562   1       1  Pd
    2.86465267    3.03794822    0.28284237   1       2  Pd
    0.01318622    3.03829337    4.12918514   1       3  Pd
    2.86466262    5.98793805    4.12839954   1       4  Pd
    3.41647708    0.59172588    0.48526543   2       5  Se
    0.78371098    2.15754480   -0.76560933   2       6  Se
    5.22151915    3.54186260    0.48536403   2       7  Se
    2.09351084    5.10760838   -0.76565143   2       8  Se
    0.78368946    5.10758472    3.07991026   2       9  Se
    3.41644249    3.54172049    4.33075538   2      10  Se
    5.22147872    0.59186402    4.33086504   2      11  Se
    2.09344983    2.15758803    3.07984371   2      12  Se

coxmol: Writing XMOL coordinates into file siesta.xyz

siesta: Program's energy decomposition (eV):
siesta: Ebs     =      -764.207119
siesta: Eions   =      6525.756472
siesta: Ena     =       512.088250
siesta: Ekin    =      3348.837522
siesta: Enl     =     -1475.510091
siesta: Eso     =         0.000000
siesta: Edftu   =         0.000000
siesta: DEna    =        44.724268
siesta: DUscf   =         3.700804
siesta: DUext   =         0.000000
siesta: Exc     =     -1420.359196
siesta: eta*DQ  =         0.000000
siesta: Emadel  =         0.000000
siesta: Emeta   =         0.000000
siesta: Emolmec =         0.000000
siesta: Ekinion =         0.000000
siesta: Eharris =     -5512.274915
siesta: Etot    =     -5512.274915
siesta: FreeEng =     -5512.274915

siesta: Final energy (eV):
siesta:  Band Struct. =    -764.207119
siesta:       Kinetic =    3348.837522
siesta:       Hartree =    1068.034460
siesta:       Edftu   =       0.000000
siesta:       Eso     =       0.000000
siesta:    Ext. field =       0.000000
siesta:   Exch.-corr. =   -1420.359196
siesta:  Ion-electron =   -4881.387520
siesta:       Ion-ion =   -3627.400182
siesta:       Ekinion =       0.000000
siesta:         Total =   -5512.274915
siesta:         Fermi =      -3.039302

siesta: Stress tensor (static) (eV/Ang**3):
siesta:    -0.002806    0.000060    0.000043
siesta:     0.000060    0.020548   -0.005759
siesta:     0.000043   -0.005760    0.053104

siesta: Cell volume =        261.370944 Ang**3

siesta: Pressure (static):
siesta:                Solid            Molecule  Units
siesta:          -0.00025720         -0.00025684  Ry/Bohr**3
siesta:          -0.02361540         -0.02358212  eV/Ang**3
siesta:         -37.83644602        -37.78312374  kBar
(Free)E+ p_basis*V_orbitals  =       -5505.968289
(Free)Eharris+ p_basis*V_orbitals  =       -5505.968289

cite: Please see "siesta.bib" for an exhaustive BiBTeX file.
cite: Please clearly indicate Siesta version in published work: 4.1.5
cite: This calculation has made use of the following articles
cite: which are encouraged to be cited in a published work.
        Primary SIESTA paper
          DOI: www.doi.org/10.1088/0953-8984/14/11/302

Routine            Calls   Time/call    Tot.time        %
siesta                 1     624.609     624.609   100.00
Setup                  1       0.188       0.188     0.03
bands                  1       0.000       0.000     0.00
KSV_init               1       0.000       0.000     0.00
IterGeom              28      22.301     624.422    99.97
state_init            28       0.093       2.609     0.42
hsparse               28       0.031       0.859     0.14
overlap               28       0.060       1.688     0.27
Setup_H0              28       2.927      81.953    13.12
naefs                 56       0.000       0.000     0.00
MolMec                56       0.000       0.000     0.00
kinefsm               56       0.039       2.156     0.35
nlefsm                56       0.212      11.859     1.90
DHSCF_Init            28       2.599      72.781    11.65
DHSCF1                28       0.045       1.266     0.20
INITMESH              28       0.000       0.000     0.00
DHSCF2                28       2.554      71.516    11.45
REMESH                28       0.529      14.812     2.37
REORD               1068       0.000       0.500     0.08
PHION                 28       1.780      49.844     7.98
COMM_BSC            1380       0.000       0.547     0.09
POISON               352       0.036      12.828     2.05
fft                  704       0.017      11.766     1.88
IterSCF              268       1.662     445.516    71.33
setup_H              296       1.425     421.672    67.51
DHSCF                324       1.574     509.922    81.64
DHSCF3               324       1.367     442.891    70.91
rhoofd               324       0.997     323.188    51.74
XC                   324       0.041      13.344     2.14
GXC-CellXC           324       0.040      13.078     2.09
cellXC               324       0.040      13.078     2.09
vmat                 324       0.283      91.750    14.69
compute_dm           268       0.087      23.328     3.73
diagon               268       0.087      23.328     3.73
r-eigvec             268       0.026       7.031     1.13
r-buildHS            268       0.000       0.016     0.00
rdiag                268       0.026       7.016     1.12
rdiag1               268       0.002       0.609     0.10
rdiag2               268       0.005       1.391     0.22
rdiag3               268       0.018       4.750     0.76
rdiag4               268       0.000       0.125     0.02
r-buildD             268       0.060      15.953     2.55
MIXER                240       0.000       0.031     0.01
PostSCF               28       3.365      94.219    15.08
DHSCF4                28       2.394      67.031    10.73
dfscf                 28       2.176      60.938     9.76
overfsm               28       0.021       0.594     0.10
state_analysis        28       0.001       0.016     0.00
siesta_move           28       0.003       0.094     0.02
Analysis               1       0.000       0.000     0.00
siesta_analysis        1       0.000       0.000     0.00
optical                1       0.000       0.000     0.00

>> End of run:  29-MAY-2023  18:23:19
Job completed